presolving:
(round 1, fast)       494 del vars, 0 del conss, 0 add conss, 0 chg bounds, 0 chg sides, 0 chg coeffs, 0 upgd conss, 0 impls, 986 clqs
(round 2, exhaustive) 494 del vars, 0 del conss, 0 add conss, 0 chg bounds, 0 chg sides, 0 chg coeffs, 986 upgd conss, 0 impls, 986 clqs
   (10.0s) probing: 51/242556 (0.0%) - 0 fixings, 0 aggregations, 0 implications, 0 bound changes
   (10.0s) probing aborted: 50/50 successive totally useless probings
   Deactivated symmetry handling methods, since SCIP was built without symmetry detector (SYM=none).
presolving (3 rounds: 3 fast, 2 medium, 2 exhaustive):
 494 deleted vars, 0 deleted constraints, 0 added constraints, 0 tightened bounds, 0 added holes, 0 changed sides, 0 changed coefficients
 0 implications, 986 cliques
presolved problem has 243048 variables (242556 bin, 0 int, 0 impl, 492 cont) and 242558 constraints
    986 constraints of type <setppc>
 241572 constraints of type <linear>
Presolving Time: 10.00

 time | node  | left  |LP iter|LP it/n|mem/heur|mdpt |vars |cons |rows |cuts |sepa|confs|strbr|  dualbound   | primalbound  |  gap   | compl. 
p16.0s|     1 |     0 |     0 |     - |  clique|   0 | 243k| 242k| 242k|   0 |  0 |   0 |   0 | 0.000000e+00 | 4.364638e+04 |    Inf | unknown
 27.0s|     1 |     0 |  1486 |     - |  1726M |   0 | 243k| 242k| 242k|   0 |  0 |  12 |   0 | 3.031549e+04 | 4.364638e+04 |  43.97%| unknown
 34.0s|     1 |     0 |  1915 |     - |  1768M |   0 | 243k| 242k| 242k| 206 |  1 |  12 |   0 | 3.123156e+04 | 4.364638e+04 |  39.75%| unknown
 42.0s|     1 |     0 |  2060 |     - |  1807M |   0 | 243k| 242k| 242k| 321 |  2 |  12 |   0 | 3.123156e+04 | 4.364638e+04 |  39.75%| unknown
 51.0s|     1 |     0 |  2137 |     - |  1839M |   0 | 243k| 242k| 242k| 358 |  4 |  12 |   0 | 3.124017e+04 | 4.364638e+04 |  39.71%| unknown
 60.0s|     1 |     0 |  2215 |     - |  1871M |   0 | 243k| 242k| 242k| 370 |  5 |  12 |   0 | 3.124017e+04 | 4.364638e+04 |  39.71%| unknown
 68.0s|     1 |     0 |  2240 |     - |  1896M |   0 | 243k| 242k| 242k| 385 |  6 |  12 |   0 | 3.125662e+04 | 4.364638e+04 |  39.64%| unknown
 78.0s|     1 |     0 |  2255 |     - |  1921M |   0 | 243k| 242k| 242k| 396 |  7 |  12 |   0 | 3.125918e+04 | 4.364638e+04 |  39.63%| unknown
 87.0s|     1 |     0 |  2288 |     - |  1947M |   0 | 243k| 242k| 242k| 410 |  8 |  12 |   0 | 3.125918e+04 | 4.364638e+04 |  39.63%| unknown
 96.0s|     1 |     0 |  2295 |     - |  1972M |   0 | 243k| 242k| 242k| 417 |  9 |  12 |   0 | 3.125918e+04 | 4.364638e+04 |  39.63%| unknown
  104s|     1 |     0 |  2327 |     - |  1996M |   0 | 243k| 242k| 242k| 426 | 10 |  12 |   0 | 3.125918e+04 | 4.364638e+04 |  39.63%| unknown
  113s|     1 |     0 |  2363 |     - |  2021M |   0 | 243k| 242k| 243k| 442 | 11 |  12 |   0 | 3.126656e+04 | 4.364638e+04 |  39.59%| unknown
  189s|     1 |     0 |  2429 |     - |  2046M |   0 | 243k| 242k| 242k| 454 | 12 |  12 |   0 | 3.130849e+04 | 4.364638e+04 |  39.41%| unknown
  207s|     1 |     0 |  2495 |     - |  2071M |   0 | 243k| 242k| 242k| 484 | 13 |  12 |   0 | 3.131486e+04 | 4.364638e+04 |  39.38%| unknown
  215s|     1 |     0 |  2537 |     - |  2095M |   0 | 243k| 242k| 242k| 498 | 14 |  12 |   0 | 3.131529e+04 | 4.364638e+04 |  39.38%| unknown
 time | node  | left  |LP iter|LP it/n|mem/heur|mdpt |vars |cons |rows |cuts |sepa|confs|strbr|  dualbound   | primalbound  |  gap   | compl. 
  225s|     1 |     0 |  2904 |     - |  2123M |   0 | 243k| 242k| 243k| 727 | 15 |  12 |   0 | 3.170912e+04 | 4.364638e+04 |  37.65%| unknown
  235s|     1 |     0 |  2999 |     - |  2155M |   0 | 243k| 242k| 243k| 804 | 16 |  12 |   0 | 3.171485e+04 | 4.364638e+04 |  37.62%| unknown
  243s|     1 |     0 |  3045 |     - |  2183M |   0 | 243k| 242k| 243k| 820 | 17 |  12 |   0 | 3.174613e+04 | 4.364638e+04 |  37.49%| unknown
  336s|     1 |     0 |  3091 |     - |  2209M |   0 | 243k| 242k| 243k| 845 | 18 |  12 |   0 | 3.176290e+04 | 4.364638e+04 |  37.41%| unknown
  367s|     1 |     0 |  3134 |     - |  2235M |   0 | 243k| 242k| 243k| 856 | 19 |  12 |   0 | 3.179185e+04 | 4.364638e+04 |  37.29%| unknown

SCIP Status        : solving was interrupted [time limit reached]
Solving Time (sec) : 856.00
Solving Nodes      : 1
Primal Bound       : +4.36463761339293e+04 (1 solutions)
Dual Bound         : +3.17918479089974e+04
Gap                : 37.29 %
Trying to solve problem with MTZ Solver Method...
Starting Solver, time limit setted to 10 minutes
Route:  [[0, 1], [1, 3], [2, 20], [3, 4], [4, 5], [5, 6], [6, 10], [7, 11], [8, 7], [9, 8], [10, 9], [11, 18], [12, 52], [13, 12], [14, 13], [15, 14], [16, 17], [17, 15], [18, 16], [19, 66], [20, 197], [21, 22], [22, 23], [23, 32], [24, 384], [25, 24], [26, 466], [27, 26], [28, 27], [29, 30], [30, 28], [31, 29], [32, 33], [33, 34], [34, 35], [35, 37], [36, 39], [37, 36], [38, 31], [39, 38], [40, 50], [41, 40], [42, 43], [43, 41], [44, 45], [45, 42], [46, 44], [47, 48], [48, 49], [49, 51], [50, 47], [51, 2], [52, 56], [53, 57], [54, 53], [55, 54], [56, 55], [57, 58], [58, 59], [59, 63], [60, 19], [61, 60], [62, 61], [63, 85], [64, 46], [65, 78], [66, 68], [67, 69], [68, 67], [69, 80], [70, 81], [71, 70], [72, 71], [73, 72], [74, 89], [75, 74], [76, 75], [77, 73], [78, 95], [79, 77], [80, 79], [81, 82], [82, 65], [83, 62], [84, 83], [85, 84], [86, 64], [87, 88], [88, 96], [89, 87], [90, 91], [91, 92], [92, 115], [93, 90], [94, 101], [95, 76], [96, 97], [97, 100], [98, 94], [99, 104], [100, 99], [101, 109], [102, 108], [103, 102], [104, 107], [105, 98], [106, 105], [107, 111], [108, 93], [109, 113], [110, 103], [111, 112], [112, 118], [113, 114], [114, 119], [115, 86], [116, 124], [117, 110], [118, 116], [119, 122], [120, 106], [121, 125], [122, 126], [123, 117], [124, 128], [125, 120], [126, 130], [127, 121], [128, 131], [129, 133], [130, 132], [131, 144], [132, 134], [133, 155], [134, 136], [135, 145], [136, 135], [137, 141], [138, 127], [139, 137], [140, 123], [141, 129], [142, 140], [143, 139], [144, 151], [145, 146], [146, 147], [147, 149], [148, 138], [149, 143], [150, 142], [151, 153], [152, 177], [153, 158], [154, 148], [155, 171], [156, 150], [157, 156], [158, 159], [159, 161], [160, 154], [161, 166], [162, 160], [163, 167], [164, 157], [165, 178], [166, 165], [167, 152], [168, 183], [169, 162], [170, 169], [171, 181], [172, 170], [173, 175], [174, 180], [175, 174], [176, 182], [177, 213], [178, 184], [179, 173], [180, 172], [181, 168], [182, 195], [183, 201], [184, 188], [185, 193], [186, 199], [187, 191], [188, 185], [189, 223], [190, 186], [191, 190], [192, 187], [193, 179], [194, 192], [195, 164], [196, 163], [197, 196], [198, 194], [199, 203], [200, 189], [201, 202], [202, 206], [203, 176], [204, 198], [205, 210], [206, 220], [207, 205], [208, 200], [209, 215], [210, 222], [211, 207], [212, 216], [213, 225], [214, 217], [215, 208], [216, 211], [217, 235], [218, 212], [219, 218], [220, 219], [221, 214], [222, 230], [223, 234], [224, 209], [225, 0], [226, 227], [227, 228], [228, 233], [229, 221], [230, 240], [231, 238], [232, 226], [233, 278], [234, 265], [235, 271], [236, 231], [237, 232], [238, 204], [239, 224], [240, 266], [241, 243], [242, 241], [243, 244], [244, 245], [245, 246], [246, 247], [247, 248], [248, 249], [249, 250], [250, 251], [251, 252], [252, 253], [253, 264], [254, 229], [255, 242], [256, 237], [257, 256], [258, 257], [259, 258], [260, 259], [261, 260], [262, 261], [263, 262], [264, 263], [265, 268], [266, 270], [267, 254], [268, 300], [269, 306], [270, 277], [271, 275], [272, 255], [273, 269], [274, 273], [275, 296], [276, 297], [277, 298], [278, 279], [279, 280], [280, 281], [281, 282], [282, 283], [283, 284], [284, 285], [285, 286], [286, 299], [287, 274], [288, 289], [289, 290], [290, 291], [291, 292], [292, 293], [293, 294], [294, 295], [295, 307], [296, 325], [297, 267], [298, 309], [299, 310], [300, 21], [301, 287], [302, 318], [303, 272], [304, 276], [305, 288], [306, 319], [307, 302], [308, 321], [309, 322], [310, 323], [311, 312], [312, 314], [313, 308], [314, 301], [315, 327], [316, 348], [317, 303], [318, 330], [319, 331], [320, 305], [321, 328], [322, 336], [323, 335], [324, 316], [325, 344], [326, 313], [327, 338], [328, 358], [329, 317], [330, 343], [331, 346], [332, 320], [333, 368], [334, 490], [335, 350], [336, 349], [337, 326], [338, 353], [339, 311], [340, 324], [341, 333], [342, 329], [343, 354], [344, 341], [345, 332], [346, 360], [347, 315], [348, 357], [349, 363], [350, 362], [351, 340], [352, 337], [353, 365], [354, 366], [355, 339], [356, 342], [357, 356], [358, 374], [359, 345], [360, 372], [361, 334], [362, 375], [363, 376], [364, 352], [365, 378], [366, 379], [367, 396], [368, 369], [369, 370], [370, 351], [371, 347], [372, 383], [373, 359], [374, 355], [375, 387], [376, 388], [377, 364], [378, 393], [379, 386], [380, 367], [381, 239], [382, 373], [383, 400], [384, 304], [385, 392], [386, 401], [387, 409], [388, 408], [389, 410], [390, 381], [391, 398], [392, 377], [393, 425], [394, 371], [395, 380], [396, 389], [397, 390], [398, 25], [399, 382], [400, 420], [401, 402], [402, 403], [403, 404], [404, 405], [405, 406], [406, 407], [407, 385], [408, 423], [409, 419], [410, 397], [411, 399], [412, 411], [413, 412], [414, 413], [415, 414], [416, 415], [417, 416], [418, 417], [419, 418], [420, 429], [421, 422], [422, 391], [423, 424], [424, 431], [425, 361], [426, 427], [427, 394], [428, 421], [429, 488], [430, 442], [431, 430], [432, 433], [433, 434], [434, 435], [435, 436], [436, 437], [437, 438], [438, 439], [439, 440], [440, 482], [441, 453], [442, 457], [443, 432], [444, 443], [445, 444], [446, 445], [447, 446], [448, 447], [449, 448], [450, 449], [451, 450], [452, 451], [453, 452], [454, 441], [455, 454], [456, 428], [457, 460], [458, 395], [459, 458], [460, 462], [461, 456], [462, 465], [463, 461], [464, 459], [465, 463], [466, 236], [467, 469], [468, 467], [469, 464], [470, 468], [471, 470], [472, 471], [473, 472], [474, 473], [475, 481], [476, 477], [477, 479], [478, 475], [479, 478], [480, 476], [481, 483], [482, 480], [483, 484], [484, 486], [485, 455], [486, 487], [487, 489], [488, 485], [489, 426], [490, 491], [491, 492], [492, 474]]
An Otimal Solution was found, yay!
Objective value: 43646.4
Problem solved in 3134 iterations
Problem solved in 1 nodes
Final Route Configuration succesfully created at:
data/routes/d493.csv
